--- Job Ex6-3-relaxed.gms Start 09/25/20 11:08:41 32.2.0 rc62c018 WEX-WEI x86 64bit/MS Windows
--- Applying:
    C:\GAMS\32\gmsprmNT.txt
--- GAMS Parameters defined
    Input C:\Users\oboem\Documents\GitHub\CEE-5410-Walker\Ex6-3-relaxed.gms
    PageSize 0
    ScrDir C:\Users\oboem\Documents\GitHub\CEE-5410-Walker\225a\
    SysDir C:\GAMS\32\
    LogOption 3
    ErrMsg 1
    ErrorLog 99
    IDE 1
    LstTitleLeftAligned 1
GAMS 32.2.0   Copyright (C) 1987-2020 GAMS Development. All rights reserved
Licensee: Small MUD - 5 User License                     G200622/0001AP-GEN
          Utah State University, Utah Water Research Laboratory      DC7087
          C:\GAMS\32\gamslice.txt
--- Starting compilation
--- Ex6-3-relaxed.gms(82) 3 Mb
--- Starting execution: elapsed 0:00:00.092
--- Generating LP model WatSupplyRelaxed
--- Ex6-3-relaxed.gms(75) 4 Mb
---   10 rows  5 columns  18 non-zeroes
--- Executing CPLEX (Solvelink=2): elapsed 0:00:00.263

IBM ILOG CPLEX   32.2.0 rc62c018 Released Aug 26, 2020 WEI x86 64bit/MS Window
--- GAMS/Cplex Link licensed for continuous and discrete problems.
Cplex 12.10.0.0

Reading data...
Starting Cplex...
Space for names approximately 0.00 Mb
Use option 'names no' to turn use of names off
Version identifier: 12.10.0.0 | 2019-11-26 | 843d4de2ae
CPXPARAM_Advance                                 0
CPXPARAM_Simplex_Display                         2
CPXPARAM_Threads                                 1
CPXPARAM_Parallel                                1
Tried aggregator 1 time.
LP Presolve eliminated 10 rows and 5 columns.
All rows and columns eliminated.
Presolve time = 0.02 sec. (0.00 ticks)
LP status(1): optimal
Cplex Time: 0.03sec (det. 0.01 ticks)

Optimal solution found.
Objective :      330000.000000

--- Reading solution for model WatSupplyRelaxed
--- Executing after solve: elapsed 0:00:00.723
--- Ex6-3-relaxed.gms(80) 4 Mb
--- GDX File C:\Users\oboem\Documents\GitHub\CEE-5410-Walker\Ex6-3-relaxed.gdx
--- Ex6-3-relaxed.gms(82) 4 Mb
GDX2XLS          32.2.0 rc62c018 Released Aug 26, 2020 WEI x86 64bit/MS Window
gdx2xls error: Input file not found: C:\Users\oboem\Documents\GitHub\CEE-5410-Walker\Ex6-3.relaxed.gdx
*** Status: Normal completion
--- Job Ex6-3-relaxed.gms Stop 09/25/20 11:08:42 elapsed 0:00:01.057
